NAME : random_3
COMMENT : 40 random nodes
TYPE : TSP
DIMENSION : 40
EDGE_WEIGHT_TYPE : EUC_2D
NODE_COORD_SECTION
1 450 274
2 988 544
3 980 163
4 659 948
5 618 393
6 368 997
7 30 670
8 654 303
9 517 110
10 137 815
11 903 785
12 97 933
13 690 790
14 97 503
15 93 416
16 70 929
17 492 501
18 584 572
19 175 23
20 177 371
21 440 311
22 135 328
23 106 421
24 804 395
25 733 458
26 667 354
27 859 656
28 523 15
29 678 467
30 851 986
31 470 8
32 388 789
33 435 703
34 689 284
35 189 383
36 763 267
37 612 472
38 691 254
39 983 905
40 63 820
EOF